words_train/words_374_SAT.qaiger
aag 52 16 0 1 36
32
10
14
8
22
4
20
26
6
30
12
2
18
16
28
24
104
34 25 8
36 24 9
38 37 35
40 20 4
42 21 5
44 43 41
46 44 39
48 23 7
50 22 6
52 51 49
54 26 10
56 27 11
58 57 55
60 58 52
62 60 46
64 33 17
66 32 16
68 67 65
70 31 29
72 71 14
74 73 68
76 30 28
78 76 69
80 79 75
82 81 62
84 77 71
86 85 15
88 28 13
90 29 12
92 91 89
94 18 3
96 19 2
98 97 95
100 98 92
102 100 87
104 102 82
i0 1 x[7]
i1 2 z[4]
i2 2 z[6]
i3 2 z[3]
i4 1 x[2]
i5 2 z[1]
i6 1 x[1]
i7 1 x[4]
i8 2 z[2]
i9 1 x[6]
i10 2 z[5]
i11 2 z[0]
i12 1 x[0]
i13 2 z[7]
i14 1 x[5]
i15 1 x[3]
o0 bool[0]
c
simplified
  ==
    invert
      2 z
    add
      xor
        1
        1 x
      << 5
        1
