words_train/words_374_SAT.qaiger.qdimacs
p cnf 52 109
a 9 10 11 12 13 14 15 16 0
e 1 2 3 4 5 6 7 8 17 18 19 20 21 22 23 24 25 26 27 28 29 30 31 32 33 34 35 36 37 38 39 40 41 42 43 44 45 46 47 48 49 50 51 52 0
12 -4 17 0
-12 -17 0
4 -17 0
-12 4 18 0
12 -18 0
-4 -18 0
18 17 19 0
-18 -19 0
-17 -19 0
-10 -2 20 0
10 -20 0
2 -20 0
10 2 21 0
-10 -21 0
-2 -21 0
21 20 22 0
-21 -22 0
-20 -22 0
-22 19 23 0
22 -23 0
-19 -23 0
11 3 24 0
-11 -24 0
-3 -24 0
-11 -3 25 0
11 -25 0
3 -25 0
25 24 26 0
-25 -26 0
-24 -26 0
-13 -5 27 0
13 -27 0
5 -27 0
13 5 28 0
-13 -28 0
-5 -28 0
28 27 29 0
-28 -29 0
-27 -29 0
-29 -26 30 0
29 -30 0
26 -30 0
-30 -23 31 0
30 -31 0
23 -31 0
16 8 32 0
-16 -32 0
-8 -32 0
-16 -8 33 0
16 -33 0
8 -33 0
33 32 34 0
-33 -34 0
-32 -34 0
15 14 35 0
-15 -35 0
-14 -35 0
35 -7 36 0
-35 -36 0
7 -36 0
36 -34 37 0
-36 -37 0
34 -37 0
-15 -14 38 0
15 -38 0
14 -38 0
-38 34 39 0
38 -39 0
-34 -39 0
39 37 40 0
-39 -40 0
-37 -40 0
40 -31 41 0
-40 -41 0
31 -41 0
38 35 42 0
-38 -42 0
-35 -42 0
42 7 43 0
-42 -43 0
-7 -43 0
-14 6 44 0
14 -44 0
-6 -44 0
14 -6 45 0
-14 -45 0
6 -45 0
45 44 46 0
-45 -46 0
-44 -46 0
-9 1 47 0
9 -47 0
-1 -47 0
9 -1 48 0
-9 -48 0
1 -48 0
48 47 49 0
-48 -49 0
-47 -49 0
-49 -46 50 0
49 -50 0
46 -50 0
-50 43 51 0
50 -51 0
-43 -51 0
-51 -41 52 0
51 -52 0
41 -52 0
52 0
